NAME 
ROWS
 N  OBJ
 L  R0      
 L  R1      
 E  R2      
 E  R3      
 E  R4      
 E  R5      
 E  R6      
 E  R7      
 E  R8      
 E  R9      
 E  R10     
 E  R11     
 E  R12     
 E  R13     
 E  R14     
 E  R15     
 E  R16     
 E  R17     
 E  R18     
 E  R19     
 E  R20     
 E  R21     
 E  R22     
 E  R23     
 E  R24     
 E  R25     
 E  R26     
COLUMNS
    MARKER    'MARKER'                 'INTORG'
    I0(10)    OBJ       -149
    I0(10)    R0        -19
    I0(10)    R1        147
    I0(10)    R2        6
    I0(10)    R5        18
    I0(10)    R6        8
    I0(10)    R7        14
    I0(10)    R9        13
    I0(10)    R10       9
    I0(10)    R11       8
    I0(10)    R26       1
    I1(9)     OBJ       57
    I1(9)     R0        165
    I1(9)     R1        -155
    I1(9)     R2        1
    I1(9)     R5        13
    I1(9)     R6        1
    I1(9)     R9        1
    I1(9)     R10       18
    I1(9)     R11       17
    I1(9)     R26       1
    I2(11)    OBJ       -174
    I2(11)    R0        -50
    I2(11)    R1        -69
    I2(11)    R2        -1
    I2(11)    R3        12
    I2(11)    R4        11
    I2(11)    R6        1
    I2(11)    R7        9
    I2(11)    R8        14
    I2(11)    R9        5
    I2(11)    R11       12
    I2(11)    R26       1
    I3(8)     OBJ       140
    I3(8)     R0        57
    I3(8)     R1        -135
    I3(8)     R4        10
    I3(8)     R5        15
    I3(8)     R8        1
    I3(8)     R9        17
    I3(8)     R11       1
    I3(8)     R26       1
    I4(9)     OBJ       -111
    I4(9)     R0        -172
    I4(9)     R1        12
    I4(9)     R3        11
    I4(9)     R4        -1
    I4(9)     R5        19
    I4(9)     R9        9
    I4(9)     R10       1
    I4(9)     R11       2
    I4(9)     R26       1
    I5(9)     OBJ       -122
    I5(9)     R0        54
    I5(9)     R1        184
    I5(9)     R3        16
    I5(9)     R6        -1
    I5(9)     R8        11
    I5(9)     R9        16
    I5(9)     R10       -1
    I5(9)     R11       17
    I5(9)     R26       1
    I6(11)    OBJ       186
    I6(11)    R0        -180
    I6(11)    R1        127
    I6(11)    R2        14
    I6(11)    R3        6
    I6(11)    R4        16
    I6(11)    R7        2
    I6(11)    R8        19
    I6(11)    R9        1
    I6(11)    R10       12
    I6(11)    R11       7
    I6(11)    R26       1
    I7(11)    OBJ       -170
    I7(11)    R0        187
    I7(11)    R1        17
    I7(11)    R3        -1
    I7(11)    R5        13
    I7(11)    R6        6
    I7(11)    R7        19
    I7(11)    R8        11
    I7(11)    R9        3
    I7(11)    R10       17
    I7(11)    R11       17
    I7(11)    R26       1
    I8(10)    OBJ       96
    I8(10)    R0        81
    I8(10)    R1        101
    I8(10)    R2        3
    I8(10)    R3        12
    I8(10)    R6        10
    I8(10)    R8        9
    I8(10)    R9        2
    I8(10)    R10       8
    I8(10)    R11       18
    I8(10)    R26       1
    I9(8)     OBJ       1
    I9(8)     R0        -69
    I9(8)     R1        85
    I9(8)     R2        13
    I9(8)     R3        14
    I9(8)     R4        19
    I9(8)     R5        15
    I9(8)     R7        4
    I9(8)     R26       1
    MARKER    'MARKER'                 'INTEND'
    C10(16)   OBJ       -1
    C10(16)   R0        -2
    C10(16)   R1        -3
    C10(16)   R3        18
    C10(16)   R4        11
    C10(16)   R5        14
    C10(16)   R7        18
    C10(16)   R10       17
    C10(16)   R13       6
    C10(16)   R15       13
    C10(16)   R16       15
    C10(16)   R17       9
    C10(16)   R18       8
    C10(16)   R20       5
    C10(16)   R23       18
    C10(16)   R24       18
    C10(16)   R25       5
    C11(16)   OBJ       5
    C11(16)   R0        6
    C11(16)   R2        17
    C11(16)   R3        16
    C11(16)   R4        6
    C11(16)   R5        16
    C11(16)   R8        4
    C11(16)   R12       8
    C11(16)   R14       2
    C11(16)   R17       14
    C11(16)   R18       15
    C11(16)   R19       13
    C11(16)   R20       5
    C11(16)   R21       19
    C11(16)   R22       9
    C11(16)   R23       8
    C11(16)   R25       16
    C12(16)   OBJ       3
    C12(16)   R0        -3
    C12(16)   R1        6
    C12(16)   R2        9
    C12(16)   R4        18
    C12(16)   R5        -1
    C12(16)   R6        3
    C12(16)   R7        9
    C12(16)   R8        6
    C12(16)   R11       13
    C12(16)   R12       3
    C12(16)   R15       10
    C12(16)   R16       16
    C12(16)   R17       -1
    C12(16)   R19       3
    C12(16)   R21       10
    C12(16)   R25       4
    C13(21)   OBJ       8
    C13(21)   R0        2
    C13(21)   R1        1
    C13(21)   R2        7
    C13(21)   R3        4
    C13(21)   R5        15
    C13(21)   R6        3
    C13(21)   R8        15
    C13(21)   R9        4
    C13(21)   R10       1
    C13(21)   R11       -1
    C13(21)   R12       10
    C13(21)   R13       9
    C13(21)   R14       3
    C13(21)   R16       14
    C13(21)   R18       18
    C13(21)   R19       13
    C13(21)   R20       16
    C13(21)   R21       13
    C13(21)   R22       6
    C13(21)   R23       17
    C13(21)   R25       10
    C14(14)   OBJ       -2
    C14(14)   R1        -5
    C14(14)   R2        9
    C14(14)   R3        12
    C14(14)   R5        10
    C14(14)   R7        13
    C14(14)   R8        6
    C14(14)   R9        10
    C14(14)   R10       3
    C14(14)   R11       -1
    C14(14)   R13       9
    C14(14)   R17       3
    C14(14)   R20       8
    C14(14)   R22       5
    C14(14)   R24       3
    C15(20)   OBJ       -8
    C15(20)   R0        5
    C15(20)   R1        1
    C15(20)   R3        11
    C15(20)   R4        10
    C15(20)   R5        16
    C15(20)   R6        -1
    C15(20)   R7        3
    C15(20)   R8        19
    C15(20)   R9        7
    C15(20)   R10       14
    C15(20)   R11       19
    C15(20)   R12       -1
    C15(20)   R14       4
    C15(20)   R16       14
    C15(20)   R17       14
    C15(20)   R18       2
    C15(20)   R21       5
    C15(20)   R23       12
    C15(20)   R24       7
    C15(20)   R25       11
    C16(20)   OBJ       1
    C16(20)   R0        -10
    C16(20)   R1        8
    C16(20)   R2        -1
    C16(20)   R3        5
    C16(20)   R5        9
    C16(20)   R7        12
    C16(20)   R8        5
    C16(20)   R9        8
    C16(20)   R10       -1
    C16(20)   R11       19
    C16(20)   R14       3
    C16(20)   R15       4
    C16(20)   R18       10
    C16(20)   R19       10
    C16(20)   R20       18
    C16(20)   R21       10
    C16(20)   R22       7
    C16(20)   R23       5
    C16(20)   R24       6
    C16(20)   R25       12
    C17(15)   OBJ       -8
    C17(15)   R0        8
    C17(15)   R1        -5
    C17(15)   R4        18
    C17(15)   R5        10
    C17(15)   R6        19
    C17(15)   R7        14
    C17(15)   R8        13
    C17(15)   R9        2
    C17(15)   R11       1
    C17(15)   R13       -1
    C17(15)   R16       -1
    C17(15)   R17       1
    C17(15)   R19       10
    C17(15)   R20       5
    C17(15)   R23       2
    C18(17)   OBJ       6
    C18(17)   R0        6
    C18(17)   R1        -6
    C18(17)   R2        -1
    C18(17)   R3        12
    C18(17)   R5        16
    C18(17)   R7        11
    C18(17)   R8        10
    C18(17)   R11       4
    C18(17)   R12       9
    C18(17)   R13       17
    C18(17)   R14       15
    C18(17)   R15       11
    C18(17)   R16       15
    C18(17)   R17       10
    C18(17)   R19       4
    C18(17)   R23       15
    C18(17)   R25       16
    C19(19)   OBJ       -7
    C19(19)   R0        -6
    C19(19)   R1        -4
    C19(19)   R2        1
    C19(19)   R3        4
    C19(19)   R5        10
    C19(19)   R6        17
    C19(19)   R7        -1
    C19(19)   R8        5
    C19(19)   R10       17
    C19(19)   R11       5
    C19(19)   R12       3
    C19(19)   R13       6
    C19(19)   R15       7
    C19(19)   R16       5
    C19(19)   R17       7
    C19(19)   R18       16
    C19(19)   R21       5
    C19(19)   R22       -1
    C19(19)   R25       15
    C20(18)   OBJ       -9
    C20(18)   R0        7
    C20(18)   R1        2
    C20(18)   R2        19
    C20(18)   R3        17
    C20(18)   R4        16
    C20(18)   R5        13
    C20(18)   R6        16
    C20(18)   R7        1
    C20(18)   R9        3
    C20(18)   R10       7
    C20(18)   R12       19
    C20(18)   R13       9
    C20(18)   R14       2
    C20(18)   R17       12
    C20(18)   R21       16
    C20(18)   R22       7
    C20(18)   R23       -1
    C20(18)   R25       13
    C21(19)   OBJ       5
    C21(19)   R0        -10
    C21(19)   R1        1
    C21(19)   R2        2
    C21(19)   R3        15
    C21(19)   R4        10
    C21(19)   R6        6
    C21(19)   R8        4
    C21(19)   R9        16
    C21(19)   R11       1
    C21(19)   R12       19
    C21(19)   R13       8
    C21(19)   R14       14
    C21(19)   R17       18
    C21(19)   R18       16
    C21(19)   R19       11
    C21(19)   R21       14
    C21(19)   R22       15
    C21(19)   R24       14
    C21(19)   R25       12
    C22(16)   OBJ       -3
    C22(16)   R0        1
    C22(16)   R1        -9
    C22(16)   R3        12
    C22(16)   R4        2
    C22(16)   R6        8
    C22(16)   R9        19
    C22(16)   R10       1
    C22(16)   R14       7
    C22(16)   R15       8
    C22(16)   R16       1
    C22(16)   R17       12
    C22(16)   R19       18
    C22(16)   R21       14
    C22(16)   R23       12
    C22(16)   R24       1
    C22(16)   R25       6
    C23(18)   R0        -3
    C23(18)   R1        -4
    C23(18)   R2        19
    C23(18)   R3        15
    C23(18)   R4        -1
    C23(18)   R5        14
    C23(18)   R6        15
    C23(18)   R7        7
    C23(18)   R12       3
    C23(18)   R13       13
    C23(18)   R14       -1
    C23(18)   R17       6
    C23(18)   R18       17
    C23(18)   R19       12
    C23(18)   R20       6
    C23(18)   R21       19
    C23(18)   R22       4
    C23(18)   R24       17
    C24(19)   OBJ       -7
    C24(19)   R0        7
    C24(19)   R1        8
    C24(19)   R2        15
    C24(19)   R3        1
    C24(19)   R4        16
    C24(19)   R5        12
    C24(19)   R8        8
    C24(19)   R9        10
    C24(19)   R12       17
    C24(19)   R13       -1
    C24(19)   R14       15
    C24(19)   R15       13
    C24(19)   R16       8
    C24(19)   R18       5
    C24(19)   R19       2
    C24(19)   R21       14
    C24(19)   R22       19
    C24(19)   R23       11
    C24(19)   R25       9
    C25(1)    R2        1
    C26(1)    R3        1
    C27(1)    R4        1
    C28(1)    R5        1
    C29(1)    R6        1
    C30(1)    R7        1
    C31(1)    R8        1
    C32(1)    R9        1
    C33(1)    R10       1
    C34(1)    R11       1
    C35(1)    R12       1
    C36(1)    R13       1
    C37(1)    R14       1
    C38(1)    R15       1
    C39(1)    R16       1
    C40(1)    R17       1
    C41(1)    R18       1
    C42(1)    R19       1
    C43(1)    R20       1
    C44(1)    R21       1
    C45(1)    R22       1
    C46(1)    R23       1
    C47(1)    R24       1
    C48(1)    R25       1
    C49(1)    R26       1
RHS
    RHS1      R0        1.0355250017338543e+02
    RHS1      R1        -1.4281680421665803e+02
    RHS1      R2        74
    RHS1      R3        76
    RHS1      R4        69
    RHS1      R5        50
    RHS1      R6        73
    RHS1      R7        88
    RHS1      R8        59
    RHS1      R9        69
    RHS1      R10       76
    RHS1      R11       72
    RHS1      R12       84
    RHS1      R13       80
    RHS1      R14       67
    RHS1      R15       79
    RHS1      R16       95
    RHS1      R17       61
    RHS1      R18       63
    RHS1      R19       80
    RHS1      R20       78
    RHS1      R21       85
    RHS1      R22       92
    RHS1      R23       63
    RHS1      R24       64
    RHS1      R25       99
    RHS1      R26       3
BOUNDS
 UP BND1      I0(10)    2
 UP BND1      I1(9)     2
 UP BND1      I2(11)    2
 UP BND1      I3(8)     2
 UP BND1      I4(9)     2
 UP BND1      I5(9)     2
 UP BND1      I6(11)    2
 UP BND1      I7(11)    2
 UP BND1      I8(10)    2
 UP BND1      I9(8)     2
ENDATA
